Size	1	2	3	4	5	6	7	

29	110	61	48	34	37	37	37	
30	137	81	85	70	70	69	69	
31	206	140	149	107	107	107	109	
32	411	233	232	219	218	222	246	
33	723	548	568	446	369	382	394	
34	1435	959	1010	954	866	789	789	
35	2347	1804	1852	1151	1163	1150	1143	
